\ Model MTZ_MODEL
\ LP format - for model browsing. Use MPS format to capture full model detail.
Minimize
  p[0,1] + p[0,2] + p[0,3] + p[0,4] + p[0,5] + p[1,0] + p[1,2] + p[1,3]
   + p[1,4] + p[1,5] + p[2,0] + p[2,1] + p[2,3] + p[2,4] + p[2,5] + p[3,0]
   + p[3,1] + p[3,2] + p[3,4] + p[3,5] + p[4,0] + p[4,1] + p[4,2] + p[4,3]
   + p[4,5] + p[5,0] + p[5,1] + p[5,2] + p[5,3] + p[5,4] + dc[0] + dc[1]
   + dc[2] + dc[3] + dc[4] + dc[5]
Subject To
 p2: p[0,1] - 41.24456439359958 z[0,1] >= 0
 p3: p[0,1] - 49.99038723258715 z[0,1] - dcc[0,1] >= -49.99038723258715
 R2: dcc[0,1] <= 49.99038723258715
 R3: x[0,1,0] - x[1,0,0] + dif[0,1,0] >= 0
 R4: - x[0,1,0] + x[1,0,0] + dif[0,1,0] >= 0
 R5: x[0,1,1] - x[1,0,1] + dif[0,1,1] >= 0
 R6: - x[0,1,1] + x[1,0,1] + dif[0,1,1] >= 0
 p2: p[0,2] - 14.09848400054533 z[0,2] >= 0
 p3: p[0,2] - 25.42741279667635 z[0,2] - dcc[0,2] >= -25.42741279667635
 R9: dcc[0,2] <= 25.42741279667635
 R10: x[0,1,0] - x[2,0,0] + dif[0,2,0] >= 0
 R11: - x[0,1,0] + x[2,0,0] + dif[0,2,0] >= 0
 R12: x[0,1,1] - x[2,0,1] + dif[0,2,1] >= 0
 R13: - x[0,1,1] + x[2,0,1] + dif[0,2,1] >= 0
 p2: p[0,3] - 48.3494020803149 z[0,3] >= 0
 p3: p[0,3] - 56.49880782593669 z[0,3] - dcc[0,3] >= -56.49880782593669
 R16: dcc[0,3] <= 56.49880782593669
 R17: x[0,1,0] - x[3,0,0] + dif[0,3,0] >= 0
 R18: - x[0,1,0] + x[3,0,0] + dif[0,3,0] >= 0
 R19: x[0,1,1] - x[3,0,1] + dif[0,3,1] >= 0
 R20: - x[0,1,1] + x[3,0,1] + dif[0,3,1] >= 0
 p2: p[0,4] - 9.901712981221955 z[0,4] >= 0
 p3: p[0,4] - 19.21765653496125 z[0,4] - dcc[0,4] >= -19.21765653496125
 R23: dcc[0,4] <= 19.21765653496125
 R24: x[0,1,0] - x[4,0,0] + dif[0,4,0] >= 0
 R25: - x[0,1,0] + x[4,0,0] + dif[0,4,0] >= 0
 R26: x[0,1,1] - x[4,0,1] + dif[0,4,1] >= 0
 R27: - x[0,1,1] + x[4,0,1] + dif[0,4,1] >= 0
 p2: p[0,5] - 0.8221850560911474 z[0,5] >= 0
 p3: p[0,5] - 10.72921183994441 z[0,5] - dcc[0,5] >= -10.72921183994441
 R30: dcc[0,5] <= 10.72921183994441
 R31: x[0,1,0] - x[5,0,0] + dif[0,5,0] >= 0
 R32: - x[0,1,0] + x[5,0,0] + dif[0,5,0] >= 0
 R33: x[0,1,1] - x[5,0,1] + dif[0,5,1] >= 0
 R34: - x[0,1,1] + x[5,0,1] + dif[0,5,1] >= 0
 p2: p[1,0] - 41.24456439359958 z[1,0] >= 0
 p3: p[1,0] - 49.99038723258715 z[1,0] - dcc[1,0] >= -49.99038723258715
 R37: dcc[1,0] <= 49.99038723258715
 R38: - x[0,0,0] + x[1,1,0] + dif[1,0,0] >= 0
 R39: x[0,0,0] - x[1,1,0] + dif[1,0,0] >= 0
 R40: - x[0,0,1] + x[1,1,1] + dif[1,0,1] >= 0
 R41: x[0,0,1] - x[1,1,1] + dif[1,0,1] >= 0
 p2: p[1,2] - 43.54969261891761 z[1,2] >= 0
 p3: p[1,2] - 46.84950054883714 z[1,2] - dcc[1,2] >= -46.84950054883714
 R44: dcc[1,2] <= 46.84950054883714
 R45: x[1,1,0] - x[2,0,0] + dif[1,2,0] >= 0
 R46: - x[1,1,0] + x[2,0,0] + dif[1,2,0] >= 0
 R47: x[1,1,1] - x[2,0,1] + dif[1,2,1] >= 0
 R48: - x[1,1,1] + x[2,0,1] + dif[1,2,1] >= 0
 p2: p[1,3] - 23.03682804485955 z[1,3] >= 0
 p3: p[1,3] - 23.41693268526689 z[1,3] - dcc[1,3] >= -23.41693268526689
 R51: dcc[1,3] <= 23.41693268526689
 R52: x[1,1,0] - x[3,0,0] + dif[1,3,0] >= 0
 R53: - x[1,1,0] + x[3,0,0] + dif[1,3,0] >= 0
 R54: x[1,1,1] - x[3,0,1] + dif[1,3,1] >= 0
 R55: - x[1,1,1] + x[3,0,1] + dif[1,3,1] >= 0
 p2: p[1,4] - 57.86840023342616 z[1,4] >= 0
 p3: p[1,4] - 59.85334241418978 z[1,4] - dcc[1,4] >= -59.85334241418978
 R58: dcc[1,4] <= 59.85334241418978
 R59: x[1,1,0] - x[4,0,0] + dif[1,4,0] >= 0
 R60: - x[1,1,0] + x[4,0,0] + dif[1,4,0] >= 0
 R61: x[1,1,1] - x[4,0,1] + dif[1,4,1] >= 0
 R62: - x[1,1,1] + x[4,0,1] + dif[1,4,1] >= 0
 p2: p[1,5] - 49.89573891124981 z[1,5] >= 0
 p3: p[1,5] - 52.04556618306715 z[1,5] - dcc[1,5] >= -52.04556618306715
 R65: dcc[1,5] <= 52.04556618306715
 R66: x[1,1,0] - x[5,0,0] + dif[1,5,0] >= 0
 R67: - x[1,1,0] + x[5,0,0] + dif[1,5,0] >= 0
 R68: x[1,1,1] - x[5,0,1] + dif[1,5,1] >= 0
 R69: - x[1,1,1] + x[5,0,1] + dif[1,5,1] >= 0
 p2: p[2,0] - 14.09848400054533 z[2,0] >= 0
 p3: p[2,0] - 25.42741279667635 z[2,0] - dcc[2,0] >= -25.42741279667635
 R72: dcc[2,0] <= 25.42741279667635
 R73: - x[0,0,0] + x[2,1,0] + dif[2,0,0] >= 0
 R74: x[0,0,0] - x[2,1,0] + dif[2,0,0] >= 0
 R75: - x[0,0,1] + x[2,1,1] + dif[2,0,1] >= 0
 R76: x[0,0,1] - x[2,1,1] + dif[2,0,1] >= 0
 p2: p[2,1] - 43.54969261891761 z[2,1] >= 0
 p3: p[2,1] - 46.84950054883714 z[2,1] - dcc[2,1] >= -46.84950054883714
 R79: dcc[2,1] <= 46.84950054883714
 R80: - x[1,0,0] + x[2,1,0] + dif[2,1,0] >= 0
 R81: x[1,0,0] - x[2,1,0] + dif[2,1,0] >= 0
 R82: - x[1,0,1] + x[2,1,1] + dif[2,1,1] >= 0
 R83: x[1,0,1] - x[2,1,1] + dif[2,1,1] >= 0
 p2: p[2,3] - 40.81792328866408 z[2,3] >= 0
 p3: p[2,3] - 43.83200232545418 z[2,3] - dcc[2,3] >= -43.83200232545418
 R86: dcc[2,3] <= 43.83200232545418
 R87: x[2,1,0] - x[3,0,0] + dif[2,3,0] >= 0
 R88: - x[2,1,0] + x[3,0,0] + dif[2,3,0] >= 0
 R89: x[2,1,1] - x[3,0,1] + dif[2,3,1] >= 0
 R90: - x[2,1,1] + x[3,0,1] + dif[2,3,1] >= 0
 p2: p[2,4] - 19.21901846891286 z[2,4] >= 0
 p3: p[2,4] - 23.87428227031339 z[2,4] - dcc[2,4] >= -23.87428227031339
 R93: dcc[2,4] <= 23.87428227031339
 R94: x[2,1,0] - x[4,0,0] + dif[2,4,0] >= 0
 R95: - x[2,1,0] + x[4,0,0] + dif[2,4,0] >= 0
 R96: x[2,1,1] - x[4,0,1] + dif[2,4,1] >= 0
 R97: - x[2,1,1] + x[4,0,1] + dif[2,4,1] >= 0
 p2: p[2,5] - 20.87901959911846 z[2,5] >= 0
 p3: p[2,5] - 25.7427669177137 z[2,5] - dcc[2,5] >= -25.7427669177137
 R100: dcc[2,5] <= 25.7427669177137
 R101: x[2,1,0] - x[5,0,0] + dif[2,5,0] >= 0
 R102: - x[2,1,0] + x[5,0,0] + dif[2,5,0] >= 0
 R103: x[2,1,1] - x[5,0,1] + dif[2,5,1] >= 0
 R104: - x[2,1,1] + x[5,0,1] + dif[2,5,1] >= 0
 p2: p[3,0] - 48.3494020803149 z[3,0] >= 0
 p3: p[3,0] - 56.49880782593669 z[3,0] - dcc[3,0] >= -56.49880782593669
 R107: dcc[3,0] <= 56.49880782593669
 R108: - x[0,0,0] + x[3,1,0] + dif[3,0,0] >= 0
 R109: x[0,0,0] - x[3,1,0] + dif[3,0,0] >= 0
 R110: - x[0,0,1] + x[3,1,1] + dif[3,0,1] >= 0
 R111: x[0,0,1] - x[3,1,1] + dif[3,0,1] >= 0
 p2: p[3,1] - 23.03682804485955 z[3,1] >= 0
 p3: p[3,1] - 23.41693268526689 z[3,1] - dcc[3,1] >= -23.41693268526689
 R114: dcc[3,1] <= 23.41693268526689
 R115: - x[1,0,0] + x[3,1,0] + dif[3,1,0] >= 0
 R116: x[1,0,0] - x[3,1,0] + dif[3,1,0] >= 0
 R117: - x[1,0,1] + x[3,1,1] + dif[3,1,1] >= 0
 R118: x[1,0,1] - x[3,1,1] + dif[3,1,1] >= 0
 p2: p[3,2] - 40.81792328866408 z[3,2] >= 0
 p3: p[3,2] - 43.83200232545418 z[3,2] - dcc[3,2] >= -43.83200232545418
 R121: dcc[3,2] <= 43.83200232545418
 R122: - x[2,0,0] + x[3,1,0] + dif[3,2,0] >= 0
 R123: x[2,0,0] - x[3,1,0] + dif[3,2,0] >= 0
 R124: - x[2,0,1] + x[3,1,1] + dif[3,2,1] >= 0
 R125: x[2,0,1] - x[3,1,1] + dif[3,2,1] >= 0
 p2: p[3,4] - 61.27000607814377 z[3,4] >= 0
 p3: p[3,4] - 63.0984623380564 z[3,4] - dcc[3,4] >= -63.0984623380564
 R128: dcc[3,4] <= 63.0984623380564
 R129: x[3,1,0] - x[4,0,0] + dif[3,4,0] >= 0
 R130: - x[3,1,0] + x[4,0,0] + dif[3,4,0] >= 0
 R131: x[3,1,1] - x[4,0,1] + dif[3,4,1] >= 0
 R132: - x[3,1,1] + x[4,0,1] + dif[3,4,1] >= 0
 p2: p[3,5] - 57.08684765026362 z[3,5] >= 0
 p3: p[3,5] - 59.00977923294286 z[3,5] - dcc[3,5] >= -59.00977923294286
 R135: dcc[3,5] <= 59.00977923294286
 R136: x[3,1,0] - x[5,0,0] + dif[3,5,0] >= 0
 R137: - x[3,1,0] + x[5,0,0] + dif[3,5,0] >= 0
 R138: x[3,1,1] - x[5,0,1] + dif[3,5,1] >= 0
 R139: - x[3,1,1] + x[5,0,1] + dif[3,5,1] >= 0
 p2: p[4,0] - 9.901712981221955 z[4,0] >= 0
 p3: p[4,0] - 19.21765653496125 z[4,0] - dcc[4,0] >= -19.21765653496125
 R142: dcc[4,0] <= 19.21765653496125
 R143: - x[0,0,0] + x[4,1,0] + dif[4,0,0] >= 0
 R144: x[0,0,0] - x[4,1,0] + dif[4,0,0] >= 0
 R145: - x[0,0,1] + x[4,1,1] + dif[4,0,1] >= 0
 R146: x[0,0,1] - x[4,1,1] + dif[4,0,1] >= 0
 p2: p[4,1] - 57.86840023342616 z[4,1] >= 0
 p3: p[4,1] - 59.85334241418978 z[4,1] - dcc[4,1] >= -59.85334241418978
 R149: dcc[4,1] <= 59.85334241418978
 R150: - x[1,0,0] + x[4,1,0] + dif[4,1,0] >= 0
 R151: x[1,0,0] - x[4,1,0] + dif[4,1,0] >= 0
 R152: - x[1,0,1] + x[4,1,1] + dif[4,1,1] >= 0
 R153: x[1,0,1] - x[4,1,1] + dif[4,1,1] >= 0
 p2: p[4,2] - 19.21901846891286 z[4,2] >= 0
 p3: p[4,2] - 23.87428227031339 z[4,2] - dcc[4,2] >= -23.87428227031339
 R156: dcc[4,2] <= 23.87428227031339
 R157: - x[2,0,0] + x[4,1,0] + dif[4,2,0] >= 0
 R158: x[2,0,0] - x[4,1,0] + dif[4,2,0] >= 0
 R159: - x[2,0,1] + x[4,1,1] + dif[4,2,1] >= 0
 R160: x[2,0,1] - x[4,1,1] + dif[4,2,1] >= 0
 p2: p[4,3] - 61.27000607814377 z[4,3] >= 0
 p3: p[4,3] - 63.0984623380564 z[4,3] - dcc[4,3] >= -63.0984623380564
 R163: dcc[4,3] <= 63.0984623380564
 R164: - x[3,0,0] + x[4,1,0] + dif[4,3,0] >= 0
 R165: x[3,0,0] - x[4,1,0] + dif[4,3,0] >= 0
 R166: - x[3,0,1] + x[4,1,1] + dif[4,3,1] >= 0
 R167: x[3,0,1] - x[4,1,1] + dif[4,3,1] >= 0
 p2: p[4,5] - 9.602576971865972 z[4,5] >= 0
 p3: p[4,5] - 13.02653092244939 z[4,5] - dcc[4,5] >= -13.02653092244939
 R170: dcc[4,5] <= 13.02653092244939
 R171: x[4,1,0] - x[5,0,0] + dif[4,5,0] >= 0
 R172: - x[4,1,0] + x[5,0,0] + dif[4,5,0] >= 0
 R173: x[4,1,1] - x[5,0,1] + dif[4,5,1] >= 0
 R174: - x[4,1,1] + x[5,0,1] + dif[4,5,1] >= 0
 p2: p[5,0] - 0.8221850560911474 z[5,0] >= 0
 p3: p[5,0] - 10.72921183994441 z[5,0] - dcc[5,0] >= -10.72921183994441
 R177: dcc[5,0] <= 10.72921183994441
 R178: - x[0,0,0] + x[5,1,0] + dif[5,0,0] >= 0
 R179: x[0,0,0] - x[5,1,0] + dif[5,0,0] >= 0
 R180: - x[0,0,1] + x[5,1,1] + dif[5,0,1] >= 0
 R181: x[0,0,1] - x[5,1,1] + dif[5,0,1] >= 0
 p2: p[5,1] - 49.89573891124981 z[5,1] >= 0
 p3: p[5,1] - 52.04556618306715 z[5,1] - dcc[5,1] >= -52.04556618306715
 R184: dcc[5,1] <= 52.04556618306715
 R185: - x[1,0,0] + x[5,1,0] + dif[5,1,0] >= 0
 R186: x[1,0,0] - x[5,1,0] + dif[5,1,0] >= 0
 R187: - x[1,0,1] + x[5,1,1] + dif[5,1,1] >= 0
 R188: x[1,0,1] - x[5,1,1] + dif[5,1,1] >= 0
 p2: p[5,2] - 20.87901959911846 z[5,2] >= 0
 p3: p[5,2] - 25.7427669177137 z[5,2] - dcc[5,2] >= -25.7427669177137
 R191: dcc[5,2] <= 25.7427669177137
 R192: - x[2,0,0] + x[5,1,0] + dif[5,2,0] >= 0
 R193: x[2,0,0] - x[5,1,0] + dif[5,2,0] >= 0
 R194: - x[2,0,1] + x[5,1,1] + dif[5,2,1] >= 0
 R195: x[2,0,1] - x[5,1,1] + dif[5,2,1] >= 0
 p2: p[5,3] - 57.08684765026362 z[5,3] >= 0
 p3: p[5,3] - 59.00977923294286 z[5,3] - dcc[5,3] >= -59.00977923294286
 R198: dcc[5,3] <= 59.00977923294286
 R199: - x[3,0,0] + x[5,1,0] + dif[5,3,0] >= 0
 R200: x[3,0,0] - x[5,1,0] + dif[5,3,0] >= 0
 R201: - x[3,0,1] + x[5,1,1] + dif[5,3,1] >= 0
 R202: x[3,0,1] - x[5,1,1] + dif[5,3,1] >= 0
 p2: p[5,4] - 9.602576971865972 z[5,4] >= 0
 p3: p[5,4] - 13.02653092244939 z[5,4] - dcc[5,4] >= -13.02653092244939
 R205: dcc[5,4] <= 13.02653092244939
 R206: - x[4,0,0] + x[5,1,0] + dif[5,4,0] >= 0
 R207: x[4,0,0] - x[5,1,0] + dif[5,4,0] >= 0
 R208: - x[4,0,1] + x[5,1,1] + dif[5,4,1] >= 0
 R209: x[4,0,1] - x[5,1,1] + dif[5,4,1] >= 0
 R210: z[0,1] + z[0,2] + z[0,3] + z[0,4] + z[0,5] = 1
 R211: z[1,0] + z[1,2] + z[1,3] + z[1,4] + z[1,5] = 1
 R212: z[2,0] + z[2,1] + z[2,3] + z[2,4] + z[2,5] = 1
 R213: z[3,0] + z[3,1] + z[3,2] + z[3,4] + z[3,5] = 1
 R214: z[4,0] + z[4,1] + z[4,2] + z[4,3] + z[4,5] = 1
 R215: z[5,0] + z[5,1] + z[5,2] + z[5,3] + z[5,4] = 1
 R216: z[1,0] + z[2,0] + z[3,0] + z[4,0] + z[5,0] = 1
 R217: z[0,1] + z[2,1] + z[3,1] + z[4,1] + z[5,1] = 1
 R218: z[0,2] + z[1,2] + z[3,2] + z[4,2] + z[5,2] = 1
 R219: z[0,3] + z[1,3] + z[2,3] + z[4,3] + z[5,3] = 1
 R220: z[0,4] + z[1,4] + z[2,4] + z[3,4] + z[5,4] = 1
 R221: z[0,5] + z[1,5] + z[2,5] + z[3,5] + z[4,5] = 1
 rest7: z[0,1] + z[1,0] <= 1
 rest7: z[0,2] + z[2,0] <= 1
 rest7: z[0,3] + z[3,0] <= 1
 rest7: z[0,4] + z[4,0] <= 1
 rest7: z[0,5] + z[5,0] <= 1
 rest7: z[0,1] + z[1,0] <= 1
 rest7: z[1,2] + z[2,1] <= 1
 rest7: z[1,3] + z[3,1] <= 1
 rest7: z[1,4] + z[4,1] <= 1
 rest7: z[1,5] + z[5,1] <= 1
 rest7: z[0,2] + z[2,0] <= 1
 rest7: z[1,2] + z[2,1] <= 1
 rest7: z[2,3] + z[3,2] <= 1
 rest7: z[2,4] + z[4,2] <= 1
 rest7: z[2,5] + z[5,2] <= 1
 rest7: z[0,3] + z[3,0] <= 1
 rest7: z[1,3] + z[3,1] <= 1
 rest7: z[2,3] + z[3,2] <= 1
 rest7: z[3,4] + z[4,3] <= 1
 rest7: z[3,5] + z[5,3] <= 1
 rest7: z[0,4] + z[4,0] <= 1
 rest7: z[1,4] + z[4,1] <= 1
 rest7: z[2,4] + z[4,2] <= 1
 rest7: z[3,4] + z[4,3] <= 1
 rest7: z[4,5] + z[5,4] <= 1
 rest7: z[0,5] + z[5,0] <= 1
 rest7: z[1,5] + z[5,1] <= 1
 rest7: z[2,5] + z[5,2] <= 1
 rest7: z[3,5] + z[5,3] <= 1
 rest7: z[4,5] + z[5,4] <= 1
 R252: 6 z[1,2] + sc[1] - sc[2] <= 5
 R253: 6 z[1,3] + sc[1] - sc[3] <= 5
 R254: 6 z[1,4] + sc[1] - sc[4] <= 5
 R255: 6 z[1,5] + sc[1] - sc[5] <= 5
 R256: 6 z[2,1] - sc[1] + sc[2] <= 5
 R257: 6 z[2,3] + sc[2] - sc[3] <= 5
 R258: 6 z[2,4] + sc[2] - sc[4] <= 5
 R259: 6 z[2,5] + sc[2] - sc[5] <= 5
 R260: 6 z[3,1] - sc[1] + sc[3] <= 5
 R261: 6 z[3,2] - sc[2] + sc[3] <= 5
 R262: 6 z[3,4] + sc[3] - sc[4] <= 5
 R263: 6 z[3,5] + sc[3] - sc[5] <= 5
 R264: 6 z[4,1] - sc[1] + sc[4] <= 5
 R265: 6 z[4,2] - sc[2] + sc[4] <= 5
 R266: 6 z[4,3] - sc[3] + sc[4] <= 5
 R267: 6 z[4,5] + sc[4] - sc[5] <= 5
 R268: 6 z[5,1] - sc[1] + sc[5] <= 5
 R269: 6 z[5,2] - sc[2] + sc[5] <= 5
 R270: 6 z[5,3] - sc[3] + sc[5] <= 5
 R271: 6 z[5,4] - sc[4] + sc[5] <= 5
 rest10: sc[0] = 0
 rest11: sc[1] >= 1
 rest11: sc[2] >= 1
 rest11: sc[3] >= 1
 rest11: sc[4] >= 1
 rest11: sc[5] >= 1
 R278: dc[0] <= 8.519632058119985
 envConv: mu[0,0] + mu[0,1] + mu[0,2] + mu[0,3] + mu[0,4] + mu[0,5]
   + mu[0,6] = 1
 inP1: x[0,0,0] - 37.70832981865613 mu[0,0] - 33.92663948303865 mu[0,1]
   - 33.73392213880521 mu[0,2] - 37.32289513018913 mu[0,3]
   - 41.10458546580663 mu[0,4] - 41.29730281004012 mu[0,5]
   - 37.7083298186561 mu[0,6] = 0
 inP1: x[0,1,0] - 37.70832981865613 mu[0,0] - 33.92663948303865 mu[0,1]
   - 33.73392213880521 mu[0,2] - 37.32289513018913 mu[0,3]
   - 41.10458546580663 mu[0,4] - 41.29730281004012 mu[0,5]
   - 37.7083298186561 mu[0,6] = 0
 inP1: x[0,0,1] - 56.46269396623568 mu[0,0] - 54.50186485411652 mu[0,1]
   - 50.24641039816611 mu[0,2] - 47.9517850543349 mu[0,3]
   - 49.91261416645401 mu[0,4] - 54.16806862240443 mu[0,5]
   - 56.46269396623568 mu[0,6] = 0
 inP1: x[0,1,1] - 56.46269396623568 mu[0,0] - 54.50186485411652 mu[0,1]
   - 50.24641039816611 mu[0,2] - 47.9517850543349 mu[0,3]
   - 49.91261416645401 mu[0,4] - 54.16806862240443 mu[0,5]
   - 56.46269396623568 mu[0,6] = 0
 R284: - x[0,0,0] + x[0,1,0] + difc[0,0] >= 0
 R285: x[0,0,0] - x[0,1,0] + difc[0,0] >= 0
 R286: - x[0,0,1] + x[0,1,1] + difc[0,1] >= 0
 R287: x[0,0,1] - x[0,1,1] + difc[0,1] >= 0
 R288: dc[1] <= 0.304833171027625
 envConv: mu[1,0] + mu[1,1] + mu[1,2] + mu[1,3] + mu[1,4] + mu[1,5]
   + mu[1,6] + mu[1,7] + mu[1,8] + mu[1,9] = 1
 inP1: x[1,0,0] - 78.82266355104107 mu[1,0] - 78.742491493644 mu[1,1]
   - 78.72551855558775 mu[1,2] - 78.77968656322209 mu[1,3]
   - 78.87964970376453 mu[1,4] - 78.97863411278871 mu[1,5]
   - 79.03032388522305 mu[1,6] - 79.01053280207771 mu[1,7]
   - 78.92852133110975 mu[1,8] - 78.82266355104107 mu[1,9] = 0
 inP1: x[1,1,0] - 78.82266355104107 mu[1,0] - 78.742491493644 mu[1,1]
   - 78.72551855558775 mu[1,2] - 78.77968656322209 mu[1,3]
   - 78.87964970376453 mu[1,4] - 78.97863411278871 mu[1,5]
   - 79.03032388522305 mu[1,6] - 79.01053280207771 mu[1,7]
   - 78.92852133110975 mu[1,8] - 78.82266355104107 mu[1,9] = 0
 inP1: x[1,0,1] - 33.11456360722762 mu[1,0] - 33.04542347394489 mu[1,1]
   - 32.94092545390921 mu[1,2] - 32.84996533206142 mu[1,3]
   - 32.81510436032325 mu[1,4] - 32.85265437480754 mu[1,5]
   - 32.94504530641515 mu[1,6] - 33.04904641143606 mu[1,7]
   - 33.11599441698745 mu[1,8] - 33.11456360722763 mu[1,9] = 0
 inP1: x[1,1,1] - 33.11456360722762 mu[1,0] - 33.04542347394489 mu[1,1]
   - 32.94092545390921 mu[1,2] - 32.84996533206142 mu[1,3]
   - 32.81510436032325 mu[1,4] - 32.85265437480754 mu[1,5]
   - 32.94504530641515 mu[1,6] - 33.04904641143606 mu[1,7]
   - 33.11599441698745 mu[1,8] - 33.11456360722763 mu[1,9] = 0
 R294: - x[1,0,0] + x[1,1,0] + difc[1,0] >= 0
 R295: x[1,0,0] - x[1,1,0] + difc[1,0] >= 0
 R296: - x[1,0,1] + x[1,1,1] + difc[1,1] >= 0
 R297: x[1,0,1] - x[1,1,1] + difc[1,1] >= 0
 R298: dc[2] <= 3.074145924401444
 envConv: mu[2,0] + mu[2,1] + mu[2,2] + mu[2,3] + mu[2,4] + mu[2,5] = 1
 inP1: x[2,0,0] - 34.99898561141968 mu[2,0] - 33.14369772459766 mu[2,1]
   - 32.18099665696722 mu[2,2] - 33.44130256298785 mu[2,3]
   - 35.18291551676123 mu[2,4] - 34.99898561141969 mu[2,5] = 0
 inP1: x[2,1,0] - 34.99898561141968 mu[2,0] - 33.14369772459766 mu[2,1]
   - 32.18099665696722 mu[2,2] - 33.44130256298785 mu[2,3]
   - 35.18291551676123 mu[2,4] - 34.99898561141969 mu[2,5] = 0
 inP1: x[2,0,1] - 34.04614966208455 mu[2,0] - 34.455573891321 mu[2,1]
   - 32.81760930169835 mu[2,2] - 31.39586728370634 mu[2,3]
   - 32.15514698297604 mu[2,4] - 34.04614966208454 mu[2,5] = 0
 inP1: x[2,1,1] - 34.04614966208455 mu[2,0] - 34.455573891321 mu[2,1]
   - 32.81760930169835 mu[2,2] - 31.39586728370634 mu[2,3]
   - 32.15514698297604 mu[2,4] - 34.04614966208454 mu[2,5] = 0
 R304: - x[2,0,0] + x[2,1,0] + difc[2,0] >= 0
 R305: x[2,0,0] - x[2,1,0] + difc[2,0] >= 0
 R306: - x[2,0,1] + x[2,1,1] + difc[2,1] >= 0
 R307: x[2,0,1] - x[2,1,1] + difc[2,1] >= 0
 R308: dc[3] <= 0.0780793250857293
 envConv: mu[3,0] + mu[3,1] + mu[3,2] + mu[3,3] + mu[3,4] + mu[3,5]
   + mu[3,6] + mu[3,7] + mu[3,8] + mu[3,9] = 1
 inP1: x[3,0,0] - 70.34805809993421 mu[3,0] - 70.37484800621532 mu[3,1]
   - 70.39267251342532 mu[3,2] - 70.39319133654332 mu[3,3]
   - 70.37616171246633 mu[3,4] - 70.34955199156316 mu[3,5]
   - 70.3258131579785 mu[3,6] - 70.31605287577439 mu[3,7]
   - 70.32483808946756 mu[3,8] - 70.34805809993421 mu[3,9] = 0
 inP1: x[3,1,0] - 70.34805809993421 mu[3,0] - 70.37484800621532 mu[3,1]
   - 70.39267251342532 mu[3,2] - 70.39319133654332 mu[3,3]
   - 70.37616171246633 mu[3,4] - 70.34955199156316 mu[3,5]
   - 70.3258131579785 mu[3,6] - 70.31605287577439 mu[3,7]
   - 70.32483808946756 mu[3,8] - 70.34805809993421 mu[3,9] = 0
 inP1: x[3,0,1] - 11.3277318170286 mu[3,0] - 11.33192877351573 mu[3,1]
   - 11.35236404853288 mu[3,2] - 11.37947574978673 mu[3,3]
   - 11.40057801094761 mu[3,4] - 11.40579684949284 mu[3,5]
   - 11.39269031286617 mu[3,6] - 11.36739109521815 mu[3,7]
   - 11.34173698165578 mu[3,8] - 11.3277318170286 mu[3,9] = 0
 inP1: x[3,1,1] - 11.3277318170286 mu[3,0] - 11.33192877351573 mu[3,1]
   - 11.35236404853288 mu[3,2] - 11.37947574978673 mu[3,3]
   - 11.40057801094761 mu[3,4] - 11.40579684949284 mu[3,5]
   - 11.39269031286617 mu[3,6] - 11.36739109521815 mu[3,7]
   - 11.34173698165578 mu[3,8] - 11.3277318170286 mu[3,9] = 0
 R314: - x[3,0,0] + x[3,1,0] + difc[3,0] >= 0
 R315: x[3,0,0] - x[3,1,0] + difc[3,0] >= 0
 R316: - x[3,0,1] + x[3,1,1] + difc[3,1] >= 0
 R317: x[3,0,1] - x[3,1,1] + difc[3,1] >= 0
 R318: dc[4] <= 1.757697645218204
 envConv: mu[4,0] + mu[4,1] + mu[4,2] + mu[4,3] + mu[4,4] + mu[4,5]
   + mu[4,6] + mu[4,7] + mu[4,8] = 1
 inP1: x[4,0,0] - 22.59831883637458 mu[4,0] - 23.25314404446881 mu[4,1]
   - 23.8249202626125 mu[4,2] - 23.97870873685947 mu[4,3]
   - 23.62442226473252 mu[4,4] - 22.96959705663829 mu[4,5]
   - 22.39782083849458 mu[4,6] - 22.24403236424762 mu[4,7]
   - 22.59831883637458 mu[4,8] = 0
 inP1: x[4,1,0] - 22.59831883637458 mu[4,0] - 23.25314404446881 mu[4,1]
   - 23.8249202626125 mu[4,2] - 23.97870873685947 mu[4,3]
   - 23.62442226473252 mu[4,4] - 22.96959705663829 mu[4,5]
   - 22.39782083849458 mu[4,6] - 22.24403236424762 mu[4,7]
   - 22.59831883637458 mu[4,8] = 0
 inP1: x[4,0,1] - 51.08806434141859 mu[4,0] - 50.93427586717163 mu[4,1]
   - 51.28856233929859 mu[4,2] - 51.94338754739282 mu[4,3]
   - 52.51516376553651 mu[4,4] - 52.66895223978349 mu[4,5]
   - 52.31466576765651 mu[4,6] - 51.65984055956228 mu[4,7]
   - 51.08806434141859 mu[4,8] = 0
 inP1: x[4,1,1] - 51.08806434141859 mu[4,0] - 50.93427586717163 mu[4,1]
   - 51.28856233929859 mu[4,2] - 51.94338754739282 mu[4,3]
   - 52.51516376553651 mu[4,4] - 52.66895223978349 mu[4,5]
   - 52.31466576765651 mu[4,6] - 51.65984055956228 mu[4,7]
   - 51.08806434141859 mu[4,8] = 0
 R324: - x[4,0,0] + x[4,1,0] + difc[4,0] >= 0
 R325: x[4,0,0] - x[4,1,0] + difc[4,0] >= 0
 R326: - x[4,0,1] + x[4,1,1] + difc[4,1] >= 0
 R327: x[4,0,1] - x[4,1,1] + difc[4,1] >= 0
 R328: dc[5] <= 1.944208943753734
 envConv: mu[5,0] + mu[5,1] + mu[5,2] + mu[5,3] + mu[5,4] + mu[5,5]
   + mu[5,6] = 1
 inP1: x[5,0,0] - 34.48059319841559 mu[5,0] - 34.13241753608423 mu[5,1]
   - 33.17231405030196 mu[5,2] - 32.56038622685107 mu[5,3]
   - 32.90856188918241 mu[5,4] - 33.86866537496468 mu[5,5]
   - 34.48059319841559 mu[5,6] = 0
 inP1: x[5,1,0] - 34.48059319841559 mu[5,0] - 34.13241753608423 mu[5,1]
   - 33.17231405030196 mu[5,2] - 32.56038622685107 mu[5,3]
   - 32.90856188918241 mu[5,4] - 33.86866537496468 mu[5,5]
   - 34.48059319841559 mu[5,6] = 0
 inP1: x[5,0,1] - 56.07733873955984 mu[5,0] - 56.98495143912014 mu[5,1]
   - 57.13722882034185 mu[5,2] - 56.3818935020033 mu[5,3]
   - 55.474280802443 mu[5,4] - 55.32200342122127 mu[5,5]
   - 56.07733873955982 mu[5,6] = 0
 inP1: x[5,1,1] - 56.07733873955984 mu[5,0] - 56.98495143912014 mu[5,1]
   - 57.13722882034185 mu[5,2] - 56.3818935020033 mu[5,3]
   - 55.474280802443 mu[5,4] - 55.32200342122127 mu[5,5]
   - 56.07733873955982 mu[5,6] = 0
 R334: - x[5,0,0] + x[5,1,0] + difc[5,0] >= 0
 R335: x[5,0,0] - x[5,1,0] + difc[5,0] >= 0
 R336: - x[5,0,1] + x[5,1,1] + difc[5,1] >= 0
 R337: x[5,0,1] - x[5,1,1] + difc[5,1] >= 0
 qc0: [ - dcc[0,1] ^2 + dif[0,1,0] ^2 + dif[0,1,1] ^2 ] <= 0
 qc1: [ - dcc[0,2] ^2 + dif[0,2,0] ^2 + dif[0,2,1] ^2 ] <= 0
 qc2: [ - dcc[0,3] ^2 + dif[0,3,0] ^2 + dif[0,3,1] ^2 ] <= 0
 qc3: [ - dcc[0,4] ^2 + dif[0,4,0] ^2 + dif[0,4,1] ^2 ] <= 0
 qc4: [ - dcc[0,5] ^2 + dif[0,5,0] ^2 + dif[0,5,1] ^2 ] <= 0
 qc5: [ - dcc[1,0] ^2 + dif[1,0,0] ^2 + dif[1,0,1] ^2 ] <= 0
 qc6: [ - dcc[1,2] ^2 + dif[1,2,0] ^2 + dif[1,2,1] ^2 ] <= 0
 qc7: [ - dcc[1,3] ^2 + dif[1,3,0] ^2 + dif[1,3,1] ^2 ] <= 0
 qc8: [ - dcc[1,4] ^2 + dif[1,4,0] ^2 + dif[1,4,1] ^2 ] <= 0
 qc9: [ - dcc[1,5] ^2 + dif[1,5,0] ^2 + dif[1,5,1] ^2 ] <= 0
 qc10: [ - dcc[2,0] ^2 + dif[2,0,0] ^2 + dif[2,0,1] ^2 ] <= 0
 qc11: [ - dcc[2,1] ^2 + dif[2,1,0] ^2 + dif[2,1,1] ^2 ] <= 0
 qc12: [ - dcc[2,3] ^2 + dif[2,3,0] ^2 + dif[2,3,1] ^2 ] <= 0
 qc13: [ - dcc[2,4] ^2 + dif[2,4,0] ^2 + dif[2,4,1] ^2 ] <= 0
 qc14: [ - dcc[2,5] ^2 + dif[2,5,0] ^2 + dif[2,5,1] ^2 ] <= 0
 qc15: [ - dcc[3,0] ^2 + dif[3,0,0] ^2 + dif[3,0,1] ^2 ] <= 0
 qc16: [ - dcc[3,1] ^2 + dif[3,1,0] ^2 + dif[3,1,1] ^2 ] <= 0
 qc17: [ - dcc[3,2] ^2 + dif[3,2,0] ^2 + dif[3,2,1] ^2 ] <= 0
 qc18: [ - dcc[3,4] ^2 + dif[3,4,0] ^2 + dif[3,4,1] ^2 ] <= 0
 qc19: [ - dcc[3,5] ^2 + dif[3,5,0] ^2 + dif[3,5,1] ^2 ] <= 0
 qc20: [ - dcc[4,0] ^2 + dif[4,0,0] ^2 + dif[4,0,1] ^2 ] <= 0
 qc21: [ - dcc[4,1] ^2 + dif[4,1,0] ^2 + dif[4,1,1] ^2 ] <= 0
 qc22: [ - dcc[4,2] ^2 + dif[4,2,0] ^2 + dif[4,2,1] ^2 ] <= 0
 qc23: [ - dcc[4,3] ^2 + dif[4,3,0] ^2 + dif[4,3,1] ^2 ] <= 0
 qc24: [ - dcc[4,5] ^2 + dif[4,5,0] ^2 + dif[4,5,1] ^2 ] <= 0
 qc25: [ - dcc[5,0] ^2 + dif[5,0,0] ^2 + dif[5,0,1] ^2 ] <= 0
 qc26: [ - dcc[5,1] ^2 + dif[5,1,0] ^2 + dif[5,1,1] ^2 ] <= 0
 qc27: [ - dcc[5,2] ^2 + dif[5,2,0] ^2 + dif[5,2,1] ^2 ] <= 0
 qc28: [ - dcc[5,3] ^2 + dif[5,3,0] ^2 + dif[5,3,1] ^2 ] <= 0
 qc29: [ - dcc[5,4] ^2 + dif[5,4,0] ^2 + dif[5,4,1] ^2 ] <= 0
 qc30: [ - dc[0] ^2 + difc[0,0] ^2 + difc[0,1] ^2 ] <= 0
 qc31: [ - dc[1] ^2 + difc[1,0] ^2 + difc[1,1] ^2 ] <= 0
 qc32: [ - dc[2] ^2 + difc[2,0] ^2 + difc[2,1] ^2 ] <= 0
 qc33: [ - dc[3] ^2 + difc[3,0] ^2 + difc[3,1] ^2 ] <= 0
 qc34: [ - dc[4] ^2 + difc[4,0] ^2 + difc[4,1] ^2 ] <= 0
 qc35: [ - dc[5] ^2 + difc[5,0] ^2 + difc[5,1] ^2 ] <= 0
Bounds
 mu[0,0] <= 1
 mu[0,1] <= 1
 mu[0,2] <= 1
 mu[0,3] <= 1
 mu[0,4] <= 1
 mu[0,5] <= 1
 mu[0,6] <= 1
 mu[1,0] <= 1
 mu[1,1] <= 1
 mu[1,2] <= 1
 mu[1,3] <= 1
 mu[1,4] <= 1
 mu[1,5] <= 1
 mu[1,6] <= 1
 mu[1,7] <= 1
 mu[1,8] <= 1
 mu[1,9] <= 1
 mu[2,0] <= 1
 mu[2,1] <= 1
 mu[2,2] <= 1
 mu[2,3] <= 1
 mu[2,4] <= 1
 mu[2,5] <= 1
 mu[3,0] <= 1
 mu[3,1] <= 1
 mu[3,2] <= 1
 mu[3,3] <= 1
 mu[3,4] <= 1
 mu[3,5] <= 1
 mu[3,6] <= 1
 mu[3,7] <= 1
 mu[3,8] <= 1
 mu[3,9] <= 1
 mu[4,0] <= 1
 mu[4,1] <= 1
 mu[4,2] <= 1
 mu[4,3] <= 1
 mu[4,4] <= 1
 mu[4,5] <= 1
 mu[4,6] <= 1
 mu[4,7] <= 1
 mu[4,8] <= 1
 mu[5,0] <= 1
 mu[5,1] <= 1
 mu[5,2] <= 1
 mu[5,3] <= 1
 mu[5,4] <= 1
 mu[5,5] <= 1
 mu[5,6] <= 1
 sc[0] <= 5
 sc[1] <= 5
 sc[2] <= 5
 sc[3] <= 5
 sc[4] <= 5
 sc[5] <= 5
Binaries
 z[0,1] z[0,2] z[0,3] z[0,4] z[0,5] z[1,0] z[1,2] z[1,3] z[1,4] z[1,5]
 z[2,0] z[2,1] z[2,3] z[2,4] z[2,5] z[3,0] z[3,1] z[3,2] z[3,4] z[3,5]
 z[4,0] z[4,1] z[4,2] z[4,3] z[4,5] z[5,0] z[5,1] z[5,2] z[5,3] z[5,4]
End
